NAME : coverage_path
TYPE : ATSP
DIMENSION : 4
EDGE_WEIGHT_TYPE : EXPLICIT
EDGE_WEIGHT_FORMAT : FULL_MATRIX
EDGE_WEIGHT_SECTION
0 3602 2920 3384 
0 0 190 140000 
0 190 0 100000 
0 140000 100000 0 
EOF